
Gurobi 12.0.2 (win64) logging started Mon Nov  3 17:46:02 2025

Set parameter LogFile to value "resultados DATA_1_n10m05b2d2\instancia_6_log.txt"
Set parameter TimeLimit to value 1800
Gurobi Optimizer version 12.0.2 build v12.0.2rc0 (win64 - Windows 10.0 (19045.2))

CPU model: Intel(R) Core(TM) i5-6300U CPU @ 2.40GHz, instruction set [SSE2|AVX|AVX2]
Thread count: 2 physical cores, 4 logical processors, using up to 4 threads

Non-default parameters:
TimeLimit  1800

Optimize a model with 397 rows, 789 columns and 19009 nonzeros
Model fingerprint: 0x3df9bdfc
Variable types: 0 continuous, 789 integer (789 binary)
Coefficient statistics:
  Matrix range     [1e+00, 1e+00]
  Objective range  [2e-02, 1e-01]
  Bounds range     [1e+00, 1e+00]
  RHS range        [1e+00, 3e+01]
Found heuristic solution: objective 0.8840000
Presolve removed 104 rows and 391 columns
Presolve time: 0.08s
Presolved: 293 rows, 398 columns, 6494 nonzeros
Found heuristic solution: objective 0.6780000
Variable types: 0 continuous, 398 integer (398 binary)

Root relaxation: objective 1.000000e+00, 984 iterations, 0.09 seconds (0.03 work units)

    Nodes    |    Current Node    |     Objective Bounds      |     Work
 Expl Unexpl |  Obj  Depth IntInf | Incumbent    BestBd   Gap | It/Node Time

     0     0    1.00000    0   17    0.88400    1.00000  13.1%     -    0s
H    0     0                       0.8880000    1.00000  12.6%     -    0s
H    0     0                       0.8960000    1.00000  11.6%     -    0s
H    0     0                       0.9760000    1.00000  2.46%     -    0s
     0     0    1.00000    0   97    0.97600    1.00000  2.46%     -    0s
     0     0    1.00000    0   19    0.97600    1.00000  2.46%     -    0s
H    0     0                       1.0000000    1.00000  0.00%     -    0s
     0     0    1.00000    0   19    1.00000    1.00000  0.00%     -    0s

Cutting planes:
  Clique: 3
  Zero half: 1

Explored 1 nodes (1260 simplex iterations) in 0.49 seconds (0.13 work units)
Thread count was 4 (of 4 available processors)

Solution count 6: 1 0.976 0.896 ... 0.678

Optimal solution found (tolerance 1.00e-04)
Best objective 1.000000000000e+00, best bound 1.000000000000e+00, gap 0.0000%
